<number of tasks>
20


<number of equipment>
5


<cycle time>
1000


<investment costs>
1,27972
2,5282
3,12604
4,15205
5,5875


<task times>
1,84,-1,193,168,-1
2,124,252,-1,179,-1
3,123,219,-1,176,-1
4,75,-1,169,123,-1
5,76,-1,-1,-1,137
6,97,248,-1,166,-1
7,115,-1,181,172,-1
8,71,252,-1,186,-1
9,69,-1,191,153,-1
10,106,212,-1,173,-1
11,81,240,-1,160,-1
12,107,252,-1,162,-1
13,83,215,-1,172,-1
14,76,-1,153,154,-1
15,110,-1,190,152,-1
16,95,-1,169,161,-1
17,116,-1,-1,-1,207
18,97,244,-1,173,-1
19,127,-1,-1,-1,240
20,87,174,-1,153,-1


<precedence relations>
1,13
2,5
2,10
2,13
3,4
4,5
4,6
4,7
4,8
5,9
5,14
5,16
6,10
6,14
7,9
7,10
7,12
7,17
8,11
8,12
9,15
10,15
10,16
11,14
12,13
12,18
12,20
14,17
14,20
15,18
15,19
16,18


<task types>
1,2
2,3
3,3
4,2
5,1
6,3
7,2
8,3
9,2
10,3
11,3
12,3
13,3
14,2
15,2
16,2
17,1
18,3
19,1
20,3


<line depot>
1,0
2,4
3,3
4,1
5,3


<processing costs>
1,21600
2,7200
3,7200
4,14400
5,7200


<saving costs>
1,2797
2,528
3,1260
4,1520
5,587


<end>
